
Gurobi 8.0.1 (linux64, Python) logging started Wed Jan  9 14:33:18 2019


Gurobi 8.0.1 (linux64, Python) logging started Wed Jan  9 14:34:19 2019


Gurobi 8.0.1 (linux64, Python) logging started Wed Jan  9 14:37:33 2019

